NAME : c201
TYPE : VRPSPD
DIMENSION : 101
VEHICLES : 5
CAPACITY : 700
DISTANCE : 999999
SCALE : 1000
EDGE_WEIGHT_TYPE : EXACT_2D
NODE_COORD_SECTION
1 40 50
2 52 75
3 45 70
4 62 69
5 60 66
6 42 65
7 16 42
8 58 70
9 34 60
10 28 70
11 35 66
12 35 69
13 25 85
14 22 75
15 22 85
16 20 80
17 20 85
18 18 75
19 15 75
20 15 80
21 30 50
22 30 56
23 28 52
24 14 66
25 25 50
26 22 66
27 8 62
28 23 52
29 4 55
30 20 50
31 20 55
32 10 35
33 10 40
34 8 40
35 8 45
36 5 35
37 5 45
38 2 40
39 0 40
40 0 45
41 36 18
42 35 32
43 33 32
44 33 35
45 32 20
46 30 30
47 34 25
48 30 35
49 36 40
50 48 20
51 26 32
52 25 30
53 25 35
54 44 5
55 42 10
56 42 15
57 40 5
58 38 15
59 38 5
60 38 10
61 35 5
62 50 30
63 50 35
64 50 40
65 48 30
66 44 25
67 47 35
68 47 40
69 42 30
70 45 35
71 95 30
72 95 35
73 53 30
74 92 30
75 53 35
76 45 65
77 90 35
78 72 45
79 78 40
80 87 30
81 85 25
82 85 35
83 75 55
84 72 55
85 70 58
86 86 46
87 66 55
88 64 46
89 65 60
90 56 64
91 60 55
92 60 60
93 67 85
94 42 58
95 65 82
96 62 80
97 62 40
98 60 85
99 58 75
100 55 80
101 55 85
PICKUP_AND_DELIVERY_SECTION
1 0 0 10000000 0 0 0
2 0 0 10000000 0 10 10
3 0 0 10000000 0 30 30
4 0 0 10000000 0 20 10
5 0 0 10000000 0 50 10
6 0 0 10000000 0 20 10
7 0 0 10000000 0 10 20
8 0 0 10000000 0 10 20
9 0 0 10000000 0 20 20
10 0 0 10000000 0 30 10
11 0 0 10000000 0 10 10
12 0 0 10000000 0 10 10
13 0 0 10000000 0 10 20
14 0 0 10000000 0 40 30
15 0 0 10000000 0 30 10
16 0 0 10000000 0 10 40
17 0 0 10000000 0 20 40
18 0 0 10000000 0 20 20
19 0 0 10000000 0 40 20
20 0 0 10000000 0 10 10
21 0 0 10000000 0 50 10
22 0 0 10000000 0 10 20
23 0 0 10000000 0 20 20
24 0 0 10000000 0 10 10
25 0 0 10000000 0 10 10
26 0 0 10000000 0 30 40
27 0 0 10000000 0 50 10
28 0 0 10000000 0 30 10
29 0 0 10000000 0 50 20
30 0 0 10000000 0 30 10
31 0 0 10000000 0 10 10
32 0 0 10000000 0 40 20
33 0 0 10000000 0 30 30
34 0 0 10000000 0 50 40
35 0 0 10000000 0 20 20
36 0 0 10000000 0 50 10
37 0 0 10000000 0 40 10
38 0 0 10000000 0 50 20
39 0 0 10000000 0 40 30
40 0 0 10000000 0 50 20
41 0 0 10000000 0 50 10
42 0 0 10000000 0 50 10
43 0 0 10000000 0 30 20
44 0 0 10000000 0 20 10
45 0 0 10000000 0 40 10
46 0 0 10000000 0 50 10
47 0 0 10000000 0 50 30
48 0 0 10000000 0 40 10
49 0 0 10000000 0 30 10
50 0 0 10000000 0 20 10
51 0 0 10000000 0 40 10
52 0 0 10000000 0 30 10
53 0 0 10000000 0 50 10
54 0 0 10000000 0 50 20
55 0 0 10000000 0 10 40
56 0 0 10000000 0 40 10
57 0 0 10000000 0 20 30
58 0 0 10000000 0 20 40
59 0 0 10000000 0 20 30
60 0 0 10000000 0 10 10
61 0 0 10000000 0 20 20
62 0 0 10000000 0 40 10
63 0 0 10000000 0 20 20
64 0 0 10000000 0 50 50
65 0 0 10000000 0 10 10
66 0 0 10000000 0 40 10
67 0 0 10000000 0 10 10
68 0 0 10000000 0 10 10
69 0 0 10000000 0 40 10
70 0 0 10000000 0 50 10
71 0 0 10000000 0 10 30
72 0 0 10000000 0 40 20
73 0 0 10000000 0 10 10
74 0 0 10000000 0 40 10
75 0 0 10000000 0 20 50
76 0 0 10000000 0 40 20
77 0 0 10000000 0 30 10
78 0 0 10000000 0 30 10
79 0 0 10000000 0 10 20
80 0 0 10000000 0 10 10
81 0 0 10000000 0 50 10
82 0 0 10000000 0 40 30
83 0 0 10000000 0 30 20
84 0 0 10000000 0 20 10
85 0 0 10000000 0 20 20
86 0 0 10000000 0 10 30
87 0 0 10000000 0 40 10
88 0 0 10000000 0 50 20
89 0 0 10000000 0 10 30
90 0 0 10000000 0 30 10
91 0 0 10000000 0 30 10
92 0 0 10000000 0 10 10
93 0 0 10000000 0 40 20
94 0 0 10000000 0 20 40
95 0 0 10000000 0 10 10
96 0 0 10000000 0 40 30
97 0 0 10000000 0 50 10
98 0 0 10000000 0 50 30
99 0 0 10000000 0 20 20
100 0 0 10000000 0 50 10
101 0 0 10000000 0 20 20
DEPOT_SECTION
1 
-1
EOF
